SAGEtest.lp
\ Model x
\ LP format - for model browsing. Use MPS format to capture full model detail.
Minimize
 
Subject To
 R0: - C0 - C2 + C4 >= -1
 R1: C2 - C4 >= 0
 R2: - C1 - C3 + C5 >= -1
 R3: C3 - C5 >= 0
 R4: C0 - C4 >= 0
 R5: C1 - C5 >= 0
 R6: C4 >= 0
 R7: C5 >= 0
Bounds
Binaries
 C0 C1 C2 C3 C4 C5
End
